c clasp version 2.1.1
c Reading from p40.cnf
c Solving...
s SATISFIABLE

c Models        : 1+    
c Time          : 1.783s (Solving: 0.20s 1st Model: 0.19s Unsat: 0.00s)
c CPU Time      : 1.770s
c Choices       : 5805
c Conflicts     : 370
c Restarts      : 1      (Average: 370.00 Last: 189)

c Variables     : 226560 (Eliminated: 70654 Frozen:    0)
c Constraints   : 261119 (Binary: 64.5% Ternary: 34.3% Other:  1.2%)
c Lemmas        : 370    (Binary:  0.3% Ternary:  0.3% Other: 99.5%)
c   Conflict    : 370    (Average Length: 80.0) 
c   Loop        : 0      (Average Length: 0.0) 
c   Other       : 0      (Average Length: 0.0)
c   Deleted     : 0     
